/* Objective function */
min: ;

/* Constraints */
0 C1 <= 0;
0 C1 <= 0;
0 C1 <= 0;
0 C1 <= 0;
0 C1 <= 0;
0 C1 <= 0;
0 C1 <= 0;
0 C1 <= 0;
0 C1 <= 0;
+C1 +C2 +C3 <= 900;
+C1 +C2 +C3 <= 450;
+20 C1 +15 C2 +12 C3 <= 1300;
+20 C1 +15 C2 +12 C3 <= 1200;
+20 C1 +15 C2 +12 C3 <= 5000;
+C1 +C2 +C3 <= 900;
+C1 +C2 +C3 <= 1200;
+C1 +C2 +C3 <= 750;
